presolving:
(round 1, fast)       200 del vars, 200 del conss, 0 add conss, 14800 chg bounds, 0 chg sides, 14800 chg coeffs, 0 upgd conss, 0 impls, 0 clqs
   (0.4s) running MILP presolver
   (0.4s) MILP presolver found nothing
(round 2, exhaustive) 200 del vars, 200 del conss, 0 add conss, 14800 chg bounds, 0 chg sides, 14800 chg coeffs, 14800 upgd conss, 0 impls, 0 clqs
   (0.9s) probing: 51/200 (25.5%) - 0 fixings, 0 aggregations, 0 implications, 0 bound changes
   (0.9s) probing aborted: 50/50 successive totally useless probings
   (0.9s) symmetry computation started: requiring (bin +, int -, cont +), (fixed: bin -, int +, cont -)
   (1.1s) no symmetry present
presolving (3 rounds: 3 fast, 2 medium, 2 exhaustive):
 200 deleted vars, 200 deleted constraints, 0 added constraints, 14800 tightened bounds, 0 added holes, 0 changed sides, 14800 changed coefficients
 14800 implications, 0 cliques
presolved problem has 15000 variables (200 bin, 0 int, 0 impl, 14800 cont) and 14874 constraints
  14800 constraints of type <varbound>
     74 constraints of type <linear>
Presolving Time: 1.02

 time | node  | left  |LP iter|LP it/n|mem/heur|mdpt |vars |cons |rows |cuts |sepa|confs|strbr|  dualbound   | primalbound  |  gap   | compl. 
p 1.4s|     1 |     0 |    74 |     - |   locks|   0 |  15k|  14k|  14k|   0 |  0 |   0 |   0 | 0.000000e+00 | 9.499420e+05 |    Inf | unknown
i 1.4s|     1 |     0 |    74 |     - |  oneopt|   0 |  15k|  14k|  14k|   0 |  0 |   0 |   0 | 0.000000e+00 | 6.188970e+05 |    Inf | unknown
  2.9s|     1 |     0 |  2290 |     - |   124M |   0 |  15k|  14k|  14k|   0 |  0 |   0 |   0 | 5.046938e+05 | 6.188970e+05 |  22.63%| unknown
r 3.0s|     1 |     0 |  2290 |     - |simplero|   0 |  15k|  14k|  14k|   0 |  0 |   0 |   0 | 5.046938e+05 | 5.846259e+05 |  15.84%| unknown
r 3.0s|     1 |     0 |  2290 |     - |shifting|   0 |  15k|  14k|  14k|   0 |  0 |   0 |   0 | 5.046938e+05 | 5.821285e+05 |  15.34%| unknown
  3.5s|     1 |     0 |  2321 |     - |   130M |   0 |  15k|  14k|  14k|   1 |  1 |   0 |   0 | 5.047470e+05 | 5.821285e+05 |  15.33%| unknown
r 3.6s|     1 |     0 |  2321 |     - |shifting|   0 |  15k|  14k|  14k|   1 |  1 |   0 |   0 | 5.047470e+05 | 5.798495e+05 |  14.88%| unknown
r 5.8s|     1 |     0 |  4151 |     - |intshift|   0 |  15k|  14k|  14k|   1 |  3 |   0 |   0 | 5.047470e+05 | 5.629650e+05 |  11.53%| unknown
d14.9s|     1 |     0 | 10802 |     - |farkasdi|   0 |  15k|  14k|  14k|   0 |  3 |   0 |   0 | 5.047470e+05 | 5.625052e+05 |  11.44%| unknown
d14.9s|     1 |     0 | 10819 |     - |farkasdi|   0 |  15k|  14k|  14k|   0 |  3 |   0 |   0 | 5.047470e+05 | 5.575384e+05 |  10.46%| unknown
d15.3s|     1 |     0 | 11177 |     - |farkasdi|   0 |  15k|  14k|  14k|   0 |  3 |   0 |   0 | 5.047470e+05 | 5.569878e+05 |  10.35%| unknown
d15.3s|     1 |     0 | 11206 |     - |farkasdi|   0 |  15k|  14k|  14k|   0 |  3 |   0 |   0 | 5.047470e+05 | 5.517615e+05 |   9.31%| unknown
d15.4s|     1 |     0 | 11326 |     - |farkasdi|   0 |  15k|  14k|  14k|   0 |  3 |   0 |   0 | 5.047470e+05 | 5.441573e+05 |   7.81%| unknown
d15.6s|     1 |     0 | 11496 |     - |farkasdi|   0 |  15k|  14k|  14k|   0 |  3 |   0 |   0 | 5.047470e+05 | 5.411760e+05 |   7.22%| unknown
L21.9s|     1 |     0 | 14181 |     - |    rens|   0 |  15k|  14k|  14k|   1 |  3 |   0 |   0 | 5.047470e+05 | 5.066640e+05 |   0.38%| unknown
 time | node  | left  |LP iter|LP it/n|mem/heur|mdpt |vars |cons |rows |cuts |sepa|confs|strbr|  dualbound   | primalbound  |  gap   | compl. 
 22.4s|     1 |     0 | 14181 |     - |   152M |   0 |  15k|  14k|  14k|   1 |  3 |   0 |   0 | 5.047470e+05 | 5.066640e+05 |   0.38%| unknown
 22.4s|     1 |     0 | 14181 |     - |   153M |   0 |  15k|  14k|  14k|   1 |  3 |   0 |   0 | 5.047470e+05 | 5.066640e+05 |   0.38%| unknown
 22.8s|     1 |     0 | 14181 |     - |   153M |   0 |  15k|  14k|  13k|   1 |  4 |   0 |   0 | 5.047470e+05 | 5.066640e+05 |   0.38%| unknown
(run 1, node 1) restarting after 24 global fixings of integer variables

(restart) converted 1 cuts from the global cut pool into linear constraints

presolving:
(round 1, fast)       1800 del vars, 0 del conss, 0 add conss, 0 chg bounds, 0 chg sides, 0 chg coeffs, 0 upgd conss, 14800 impls, 0 clqs
presolving (2 rounds: 2 fast, 1 medium, 1 exhaustive):
 1800 deleted vars, 0 deleted constraints, 0 added constraints, 0 tightened bounds, 0 added holes, 0 changed sides, 0 changed coefficients
 14800 implications, 0 cliques
presolved problem has 13200 variables (176 bin, 0 int, 0 impl, 13024 cont) and 13099 constraints
  13024 constraints of type <varbound>
     75 constraints of type <linear>
Presolving Time: 1.92
transformed 91/94 original solutions to the transformed problem space

 time | node  | left  |LP iter|LP it/n|mem/heur|mdpt |vars |cons |rows |cuts |sepa|confs|strbr|  dualbound   | primalbound  |  gap   | compl. 
 26.6s|     1 |     0 | 16681 |     - |   178M |   0 |  13k|  13k|  13k|   0 |  0 |   0 |   0 | 5.047470e+05 | 5.066640e+05 |   0.38%| unknown
 56.4s|     1 |     2 | 23441 |     - |   184M |   0 |  13k|  13k|  13k|   0 |  2 |  38k|  30 | 5.052126e+05 | 5.066640e+05 |   0.29%| unknown

SCIP Status        : problem is solved [optimal solution found]
Solving Time (sec) : 103.65
Solving Nodes      : 25 (total of 26 nodes in 2 runs)
Primal Bound       : +5.06664000000000e+05 (207 solutions)
Dual Bound         : +5.06664000000000e+05
Gap                : 0.00 %
Solve Status: optimal
Solve Time: 103.71 seconds
Objective Value: 506664.00
